CMD:
./solvers/bin/cadical --plain --no-reduce -t 1600 ./data/cnfs//qspiflash_dualflexpress_divfive-p135/qspiflash_dualflexpress_divfive-p135.31.cnf

c --- [ banner ] -------------------------------------------------------------
c 
c CaDiCaL SAT Solver
c Copyright (c) 2016-2024
c A. Biere, M. Fleury, N. Froleyks, K. Fazekas, F. Pollitt, T. Faller
c JKU Linz, University of Freiburg, TU Wien
c 
c Version 2.1.3 5296d3d2a9bf48c154ab2acb5e44625776d821bf
c g++ (Gentoo 12.3.1_p20230526 p2) 12.3.1 20230526 -Wall -Wextra -O3 -DNDEBUG
c Sat Aug 9 07:26:21 PDT 2025 Linux cedar2.int.cedar.computecanada.ca 5.14.0-362.24.2.el9_3.x86_64 x86_64
c 
c --- [ limit ] --------------------------------------------------------------
c 
c setting time limit to 1600 seconds real time (due to '-t 1600')
c 
c --- [ parsing input ] ------------------------------------------------------
c 
c reading DIMACS file from './data/cnfs//qspiflash_dualflexpress_divfive-p135/qspiflash_dualflexpress_divfive-p135.31.cnf'
c opening file to read './data/cnfs//qspiflash_dualflexpress_divfive-p135/qspiflash_dualflexpress_divfive-p135.31.cnf'
c found 'p cnf 95191 277107' header
c parsed 277107 clauses in 0.04 seconds process time
c 
c --- [ options ] ------------------------------------------------------------
c 
c   --compact=false                (different from default 'true')
c   --decompose=false              (different from default 'true')
c   --deduplicate=false            (different from default 'true')
c   --elim=false                   (different from default 'true')
c   --probe=false                  (different from default 'true')
c   --reduce=false                 (different from default 'true')
c   --subsume=false                (different from default 'true')
c   --ternary=false                (different from default 'true')
c   --transred=false               (different from default 'true')
c   --vivify=false                 (different from default 'true')
c 
c --- [ solving ] ------------------------------------------------------------
c 
c time measured in process time since initialization
c 
c  seconds  reductions  redundant  irredundant
c         MB    restarts       trail       variables
c          level   conflicts       glue         remaining
c 
c *  0.04 45  0 0   0    0    0  0% 0 258222 83059 87%
c {  0.06 46  0 0   0    0    0  0% 0 258222 83059 87%
c i  0.07 46 35 0   3   53   46 21% 3 258222 82624 87%
c i  0.07 46 32 0   6   74   64 21% 3 258222 82480 87%
c i  0.07 46 30 0   6   82   70 21% 3 258222 82468 87%
c i  0.07 46 29 0   6   84   71 21% 3 258222 82467 87%
c i  0.07 46 29 0   6   85   71 21% 3 258222 82466 87%
c i  0.07 46 25 0   6  111   92 20% 2 258222 82228 86%
c i  0.07 46 25 0   6  115   95 20% 2 258222 82227 86%
c i  0.09 46 31 0  31  467  415 25% 3 258222 81932 86%
c i  0.09 47 31 0  32  477  424 25% 3 258222 81924 86%
c i  0.09 47 31 0  32  480  426 25% 3 258222 81909 86%
c i  0.09 47 31 0  32  486  431 25% 3 258222 81897 86%
c i  0.10 47 29 0  49  560  494 24% 3 258222 81763 86%
c i  0.10 47 29 0  50  562  495 24% 3 258222 81731 86%
c i  0.10 47 29 0  50  563  495 24% 3 258222 81594 86%
c i  0.10 47 28 0  54  588  512 24% 3 258222 81576 86%
c i  0.10 47 26 0  54  654  566 23% 3 258222 81299 85%
c }  0.10 47 26 0  54  658  567 23% 3 258222 80326 84%
c 0  0.10 47 26 0  54  658  567 23% 3 258222 80326 84%
c 
c --- [ result ] -------------------------------------------------------------
c 
s UNSATISFIABLE
c 
c --- [ run-time profiling ] -------------------------------------------------
c 
c process time taken by individual solving procedures
c (percentage relative to process time for solving)
c 
c         0.06   99.83% search
c         0.04   70.37% unstable
c         0.04   67.03% parse
c         0.02   29.44% lucky
c         0.00    0.00% simplify
c   =================================
c         0.06   59.59% solve
c 
c last line shows process time for solving
c (percentage relative to total process time)
c 
c --- [ statistics ] ---------------------------------------------------------
c 
c chronological:               325        49.39 %  of conflicts
c conflicts:                   658     10662.60    per second
c decisions:                  1916     31047.95    per second
c fixed:                     14831        15.58 %  of all variables
c learned:                     616        93.62 %  per conflict
c learned_lits:               4664       100.00 %  learned literals
c minimized:                     0         0.00 %  learned literals
c shrunken:                    493        10.57 %  learned literals
c minishrunken:                426         9.13 %  learned literals
c otfs:                         16         2.43 %  of conflict
c propagations:            1028266        16.66 M  per second
c restarts:                     54        12.19    interval
c subsumed:                     31         0.01 %  of all clauses
c strengthened:                 16         0.01 %  of all clauses
c 
c seconds are measured in process time for solving
c 
c --- [ resources ] ----------------------------------------------------------
c 
c total process time since initialization:         0.10    seconds
c total real time since initialization:            0.11    seconds
c maximum resident set size of process:           44.94    MB
c 
c --- [ shutting down ] ------------------------------------------------------
c 
c exit 20
